164
100
35
22
63
16
34
70
79
56
17
26
52
37
1
9
35
20
59
37
28
22
38
52
17
38
92
10
7
82
22
18
87
3
33
57
43
68
28
88
79
55
36
8
55
7
66
11
31
12
6
47
48
96
6
25
1
7
53
9
1
25
36
61
3
22
4
2
78
66
40
38
12
49
58
27
62
9
64
72
64
40
19
52
41
34
10
61
89
29
14
45
44
45
13
37
1
24
43
45
50
93
67
17
4
16
21
16
76
55
42
71
6
55
19
18
29
63
55
57
40
36
29
34
4
99
49
12
14
84
5
6
21
19
13
75
37
3
37
53
85
16
4
44
43
12
41
15
68
30
21
7
27
23
27
31
73
3
18
69
51
39
6
60
1
48
